nNurses = 142;
nHours = 29;
minHours = 6;
maxHours = 13;
maxConsec = 8;
maxPresence = 10;
demand = [6, 7, 5, 5, 7, 12, 8, 9, 10, 7, 6, 8, 6, 8, 6, 6, 9, 5, 9, 14, 16, 16, 14, 19, 19, 19, 18, 14, 10];
